num_features = 34;
num_usage_limits = 8;
num_plans = 5;
num_addons = 8;

features = ["dataSources", "dataSyncFrequency", "historicalData", "warehouseDataStorage", "databoxInteractions", "thirdPartyIntegrations", "pushCustomDataToAPI", "customApiIntegrations", "sqlIntegrations", "spreadsheetsIntegration", "databoards", "databoardTemplates", "databoardDesigner", "customAccountDataboardTemplates", "databoardLoops", "metricBuilder", "customMetrics", "dataCalculations", "customDateRanges", "removableBrandingOnDataboards", "fiscalCalendars", "personalizedPerformanceScreen", "metricsScreen", "slackIntegration", "streamToTv", "mobileAppAccess", "goals", "shareableDataboardLinks", "scheduleDataboardSnapshots", "scorecards", "weeklyDigest", "databoardEmbedding", "annotations", "alerts", "basicReporting", "scheduleReports", "publicReportTemplates", "reportAccountTemplates", "shareReportPDFs", "downloadReportPDFs", "archiveReports", "removableBrandingOnReports", "advancedSlideTypes", "reportsApprovalProcess", "metricForecast", "performanceSummaries", "anomalyDetection", "advancedBenchmarks", "metricCorrelations", "clientAccounts", "clientPerformanceOverview", "clientGoalsOverview", "whiteLabeling", "chatSupport", "emailSupport", "prioritySupport", "guidedOnboarding", "dedicatedAnalyst", "userManagement", "twoFactorAuthentication", "singleSignOn", "advancedSecurity"];
usage_limits = ["includedDataSources", "dataSourcesLimit", "historicalDataThreshold", "warehouseStorageLimit", "usersLimit", "guidedOnboardingLimit", "dedicatedAnalystLimit", "15minPriorityConnections"];
plans = ["FREE", "STARTER", "PROFESSIONAL", "GROWTH", "PREMIUM"];
addons = ["brandingAndWhiteLabelling", "15minSync", "fiscalCalendar", "quickstartOnboarding", "guidedOnboarding", "dedicatedAnalyst", "advancedSecurity", "prioritySupport"];

plans_prices = [0.0,59.0,169.0,399.0,999.0];
addons_prices = [250.0,18.0,50.0,1000.0,500.0,200.0,100.0,10.0];

plans_features = array2d(PLANS, FEATURES, [
    % FREE
    1,1,1,1,1,0,0,0,0,0,1,1,1,0,1,0,0,0,0,0,0,1,1,1,1,1,1,0,1,1,1,1,1,0,0,0,0,0,0,0,0,0,0,0,0,0,0,0,0,0,0,0,0,0,0,0,0,0,0,0,0,0,0,0,
    % STARTER
    1,1,1,1,1,1,1,0,0,0,1,1,1,1,1,0,0,0,0,0,0,1,1,1,1,1,1,1,1,1,1,1,1,0,0,1,1,1,1,1,0,0,0,0,0,0,0,0,0,0,0,0,0,0,0,0,0,0,0,0,0,0,0,0,0,
    % PROFESSIONAL
    1,1,1,1,1,1,1,1,1,1,1,1,1,1,1,1,1,1,1,1,0,1,1,1,1,1,1,1,1,1,1,1,1,0,0,1,1,1,1,1,0,0,0,0,0,0,0,0,0,0,0,0,0,0,0,0,0,0,0,0,0,0,0,0,0,0,
    % GROWTH
    1,1,1,1,1,1,1,1,1,1,1,1,1,1,1,1,1,1,1,1,1,1,1,1,1,1,1,1,1,1,1,1,1,0,0,1,1,1,1,1,1,0,0,0,0,0,0,0,0,0,0,0,0,0,0,0,0,0,0,0,0,0,0,0,0,0,
    % PREMIUM
    1,1,1,1,1,1,1,1,1,1,1,1,1,1,1,1,1,1,1,1,1,1,1,1,1,1,1,1,1,1,1,1,1,0,0,1,1,1,1,1,1,1,0,0,0,0,0,0,0,0,0,0,0,0,0,0,0,0,0,0,0,0,0,0,0,0,
]);
plans_usage_limits = array2d(PLANS, USAGE_LIMITS, [
    % FREE
    3,3,11,5,3,6,2,0,
    % STARTER
    1000000000,1000000000,24,20,5,6,2,0,
    % PROFESSIONAL
    1000000000,1000000000,1000000000,20,15,6,2,0,
    % GROWTH
    1000000000,1000000000,1000000000,20,1000000000,6,2,0,
    % PREMIUM
    100,1000000000,1000000000,1000000000,1000000000,6,2,0,
]);

linked_features = array2d(USAGE_LIMITS, FEATURES, [
    % includedDataSources
    1,0,0,0,0,0,0,0,0,0,0,0,0,0,0,0,0,0,0,0,0,0,0,0,0,0,0,0,0,0,0,0,0,0,0,0,0,0,0,0,0,0,0,0,0,0,0,0,0,0,0,0,0,0,0,0,0,0,0,0,0,0,0,0,0,
    % dataSourcesLimit
    1,0,0,0,0,0,0,0,0,0,0,0,0,0,0,0,0,0,0,0,0,0,0,0,0,0,0,0,0,0,0,0,0,0,0,0,0,0,0,0,0,0,0,0,0,0,0,0,0,0,0,0,0,0,0,0,0,0,0,0,0,0,0,0,0,
    % historicalDataThreshold
    0,0,1,0,0,0,0,0,0,0,0,0,0,0,0,0,0,0,0,0,0,0,0,0,0,0,0,0,0,0,0,0,0,0,0,0,0,0,0,0,0,0,0,0,0,0,0,0,0,0,0,0,0,0,0,0,0,0,0,0,0,0,0,0,0,
    % warehouseStorageLimit
    0,0,0,1,0,0,0,0,0,0,0,0,0,0,0,0,0,0,0,0,0,0,0,0,0,0,0,0,0,0,0,0,0,0,0,0,0,0,0,0,0,0,0,0,0,0,0,0,0,0,0,0,0,0,0,0,0,0,0,0,0,0,0,0,0,
    % usersLimit
    0,0,0,0,0,0,0,0,0,0,0,0,0,0,0,0,0,0,0,0,0,0,0,0,0,0,0,0,0,0,0,0,0,0,0,0,0,0,0,0,0,0,0,0,0,0,0,0,0,0,0,0,0,0,0,0,0,0,0,0,0,0,0,0,0,
    % guidedOnboardingLimit
    0,0,0,0,0,0,0,0,0,0,0,0,0,0,0,0,0,0,0,0,0,0,0,0,0,0,0,0,0,0,0,0,0,0,0,0,0,0,0,0,0,0,0,0,0,0,0,0,0,0,0,0,0,0,0,0,0,0,0,0,0,0,0,0,0,
    % dedicatedAnalystLimit
    0,0,0,0,0,0,0,0,0,0,0,0,0,0,0,0,0,0,0,0,0,0,0,0,0,0,0,0,0,0,0,0,0,0,0,0,0,0,0,0,0,0,0,0,0,0,0,0,0,0,0,0,0,0,0,0,0,0,0,0,0,0,0,0,0,
    % 15minPriorityConnections
    0,0,0,0,0,0,0,0,0,0,0,0,0,0,0,0,0,0,0,0,0,0,0,0,0,0,0,0,0,0,0,0,0,0,0,0,0,0,0,0,0,0,0,0,0,0,0,0,0,0,0,0,0,0,0,0,0,0,0,0,0,0,0,0,0,
]);

addons_features = array2d(ADDONS, FEATURES, [
    % brandingAndWhiteLabelling
    0,0,0,0,0,0,0,0,0,0,0,0,0,0,0,0,0,0,0,0,0,0,0,0,0,0,0,0,0,0,0,0,0,0,0,0,0,0,0,0,0,0,0,0,0,0,0,0,0,0,0,0,0,0,0,0,0,0,0,0,0,0,0,0,0,1,
    % 15minSync
    0,1,0,0,0,0,0,0,0,0,0,0,0,0,0,0,0,0,0,0,0,0,0,0,0,0,0,0,0,0,0,0,0,0,0,0,0,0,0,0,0,0,0,0,0,0,0,0,0,0,0,0,0,0,0,0,0,0,0,0,0,0,0,0,0,0,
    % fiscalCalendar
    0,0,0,0,0,0,0,0,0,0,0,0,0,0,0,0,0,0,0,1,0,0,0,0,0,0,0,0,0,0,0,0,0,0,0,0,0,0,0,0,0,0,0,0,0,0,0,0,0,0,0,0,0,0,0,0,0,0,0,0,0,0,0,0,0,0,
    % quickstartOnboarding
    0,0,0,0,0,0,0,0,0,0,0,0,0,0,0,0,0,0,0,0,0,0,0,0,0,0,0,0,0,0,0,0,0,0,0,0,0,0,0,0,0,0,0,0,0,0,0,0,0,0,0,0,0,0,0,0,0,0,0,0,0,0,0,0,0,
    % guidedOnboarding
    0,0,0,0,0,0,0,0,0,0,0,0,0,0,0,0,0,0,0,0,0,0,0,0,0,0,0,0,0,0,0,0,0,0,0,0,0,0,0,0,0,0,0,0,0,0,0,0,0,0,0,0,0,0,0,0,0,0,0,0,0,0,0,0,1,
    % dedicatedAnalyst
    0,0,0,0,0,0,0,0,0,0,0,0,0,0,0,0,0,0,0,0,0,0,0,0,0,0,0,0,0,0,0,0,0,0,0,0,0,0,0,0,0,0,0,0,0,0,0,0,0,0,0,0,0,0,0,0,0,0,0,0,0,0,0,0,1,
    % advancedSecurity
    0,0,0,0,0,0,0,0,0,0,0,0,0,0,0,0,0,0,0,0,0,0,0,0,0,0,0,0,0,0,0,0,0,0,0,0,0,0,0,0,0,0,0,0,0,0,0,0,0,0,0,0,0,0,0,0,0,0,0,0,0,0,0,0,1,
    % prioritySupport
    0,0,0,0,0,0,0,0,0,0,0,0,0,0,0,0,0,0,0,0,0,0,0,0,0,0,0,0,0,0,0,0,0,0,0,0,0,0,0,0,0,0,0,0,0,0,0,0,0,0,0,0,0,0,0,0,0,0,0,0,0,0,0,0,1,
]);
addons_usage_limits = array2d(ADDONS, USAGE_LIMITS, [
    % brandingAndWhiteLabelling
    0,0,0,0,0,0,0,0,
    % 15minSync
    0,0,0,0,0,0,0,5,
    % fiscalCalendar
    0,0,0,0,0,0,0,0,
    % quickstartOnboarding
    0,0,0,0,0,0,0,0,
    % guidedOnboarding
    0,0,0,0,0,0,0,0,
    % dedicatedAnalyst
    0,0,0,0,0,0,0,0,
    % advancedSecurity
    0,0,0,0,0,0,0,0,
    % prioritySupport
    0,0,0,0,0,0,0,0,
]);
addons_usage_limits_extensions = array2d(ADDONS, USAGE_LIMITS, [
    % brandingAndWhiteLabelling
    0,0,0,0,0,0,0,0,
    % 15minSync
    0,0,0,0,0,0,0,0,
    % fiscalCalendar
    0,0,0,0,0,0,0,0,
    % quickstartOnboarding
    0,0,0,0,0,0,0,0,
    % guidedOnboarding
    0,0,0,0,0,0,0,0,
    % dedicatedAnalyst
    0,0,0,0,0,0,0,0,
    % advancedSecurity
    0,0,0,0,0,0,0,0,
    % prioritySupport
    0,0,0,0,0,0,0,0,
]);
addons_available_for = array2d(ADDONS, PLANS, [
    % brandingAndWhiteLabelling
    0,1,1,1,1,
    % 15minSync
    1,1,1,1,1,
    % fiscalCalendar
    0,1,1,1,0,
    % quickstartOnboarding
    0,1,1,1,1,
    % guidedOnboarding
    0,1,1,1,0,
    % dedicatedAnalyst
    0,1,1,1,0,
    % advancedSecurity
    0,1,1,1,0,
    % prioritySupport
    0,1,1,1,1,
]);

addons_depends_on = array2d(ADDONS, ADDONS, [
    % brandingAndWhiteLabelling
    0,0,0,0,0,0,0,0,
    % 15minSync
    0,0,0,0,0,0,0,0,
    % fiscalCalendar
    0,0,0,0,0,0,0,0,
    % quickstartOnboarding
    0,0,0,0,0,0,0,0,
    % guidedOnboarding
    0,0,0,0,0,0,0,0,
    % dedicatedAnalyst
    0,0,0,0,0,0,0,0,
    % advancedSecurity
    0,0,0,0,0,0,0,0,
    % prioritySupport
    0,0,0,0,0,0,0,0,
]);